benchmarks/ising_models/2DLattices/SqrLattices/J_unif_-1,1/5x5_square_lattice_unif_frust.wcnf
p wcnf 65 160
w -2 1.086985 0
w 2 0.919976 0
w -3 1.063599 0
w 3 0.940204 0
w -5 0.665314 0
w 5 1.503049 0
w -6 0.539727 0
w 6 1.852787 0
w -8 0.393023 0
w 8 2.544378 0
w -9 1.756149 0
w 9 0.569428 0
w -11 2.428302 0
w 11 0.411810 0
w -12 0.808654 0
w 12 1.236623 0
w -14 1.755686 0
w 14 0.569578 0
w -16 1.527395 0
w 16 0.654710 0
w -17 1.593018 0
w 17 0.627739 0
w -19 1.085311 0
w 19 0.921395 0
w -20 1.410602 0
w 20 0.708917 0
w -22 1.318098 0
w 22 0.758669 0
w -23 0.660274 0
w 23 1.514522 0
w -25 0.559997 0
w 25 1.785725 0
w -26 0.816571 0
w 26 1.224633 0
w -28 2.403576 0
w 28 0.416047 0
w -30 1.728913 0
w 30 0.578398 0
w -31 1.227358 0
w 31 0.814759 0
w -33 0.536016 0
w 33 1.865616 0
w -34 2.158715 0
w 34 0.463239 0
w -36 1.211590 0
w 36 0.825362 0
w -37 0.743243 0
w 37 1.345455 0
w -39 0.376875 0
w 39 2.653403 0
w -40 0.686347 0
w 40 1.456989 0
w -42 0.652125 0
w 42 1.533447 0
w -44 0.858632 0
w 44 1.164643 0
w -45 0.400490 0
w 45 2.496941 0
w -47 1.299112 0
w 47 0.769757 0
w -48 1.696256 0
w 48 0.589534 0
w -50 0.865766 0
w 50 1.155047 0
w -51 0.654886 0
w 51 1.526982 0
w -53 0.603853 0
w 53 1.656033 0
w -54 0.443821 0
w 54 2.253160 0
w -56 2.262891 0
w 56 0.441913 0
w -58 1.663725 0
w 58 0.601061 0
w -60 0.383865 0
w 60 2.605080 0
w -62 1.660643 0
w 62 0.602176 0
w -64 1.738077 0
w 64 0.575348 0
2 1 4 0
2 -1 -4 0
-2 1 -4 0
-2 -1 4 0
3 1 15 0
3 -1 -15 0
-3 1 -15 0
-3 -1 15 0
5 4 7 0
5 -4 -7 0
-5 4 -7 0
-5 -4 7 0
6 4 18 0
6 -4 -18 0
-6 4 -18 0
-6 -4 18 0
8 7 10 0
8 -7 -10 0
-8 7 -10 0
-8 -7 10 0
9 7 21 0
9 -7 -21 0
-9 7 -21 0
-9 -7 21 0
11 10 13 0
11 -10 -13 0
-11 10 -13 0
-11 -10 13 0
12 10 24 0
12 -10 -24 0
-12 10 -24 0
-12 -10 24 0
14 13 27 0
14 -13 -27 0
-14 13 -27 0
-14 -13 27 0
16 15 18 0
16 -15 -18 0
-16 15 -18 0
-16 -15 18 0
17 15 29 0
17 -15 -29 0
-17 15 -29 0
-17 -15 29 0
19 18 21 0
19 -18 -21 0
-19 18 -21 0
-19 -18 21 0
20 18 32 0
20 -18 -32 0
-20 18 -32 0
-20 -18 32 0
22 21 24 0
22 -21 -24 0
-22 21 -24 0
-22 -21 24 0
23 21 35 0
23 -21 -35 0
-23 21 -35 0
-23 -21 35 0
25 24 27 0
25 -24 -27 0
-25 24 -27 0
-25 -24 27 0
26 24 38 0
26 -24 -38 0
-26 24 -38 0
-26 -24 38 0
28 27 41 0
28 -27 -41 0
-28 27 -41 0
-28 -27 41 0
30 29 32 0
30 -29 -32 0
-30 29 -32 0
-30 -29 32 0
31 29 43 0
31 -29 -43 0
-31 29 -43 0
-31 -29 43 0
33 32 35 0
33 -32 -35 0
-33 32 -35 0
-33 -32 35 0
34 32 46 0
34 -32 -46 0
-34 32 -46 0
-34 -32 46 0
36 35 38 0
36 -35 -38 0
-36 35 -38 0
-36 -35 38 0
37 35 49 0
37 -35 -49 0
-37 35 -49 0
-37 -35 49 0
39 38 41 0
39 -38 -41 0
-39 38 -41 0
-39 -38 41 0
40 38 52 0
40 -38 -52 0
-40 38 -52 0
-40 -38 52 0
42 41 55 0
42 -41 -55 0
-42 41 -55 0
-42 -41 55 0
44 43 46 0
44 -43 -46 0
-44 43 -46 0
-44 -43 46 0
45 43 57 0
45 -43 -57 0
-45 43 -57 0
-45 -43 57 0
47 46 49 0
47 -46 -49 0
-47 46 -49 0
-47 -46 49 0
48 46 59 0
48 -46 -59 0
-48 46 -59 0
-48 -46 59 0
50 49 52 0
50 -49 -52 0
-50 49 -52 0
-50 -49 52 0
51 49 61 0
51 -49 -61 0
-51 49 -61 0
-51 -49 61 0
53 52 55 0
53 -52 -55 0
-53 52 -55 0
-53 -52 55 0
54 52 63 0
54 -52 -63 0
-54 52 -63 0
-54 -52 63 0
56 55 65 0
56 -55 -65 0
-56 55 -65 0
-56 -55 65 0
58 57 59 0
58 -57 -59 0
-58 57 -59 0
-58 -57 59 0
60 59 61 0
60 -59 -61 0
-60 59 -61 0
-60 -59 61 0
62 61 63 0
62 -61 -63 0
-62 61 -63 0
-62 -61 63 0
64 63 65 0
64 -63 -65 0
-64 63 -65 0
-64 -63 65 0
