benchmarks/ising_models/2DLattices/SqrLattices/J_unif_-1,1/5x5_square_lattice_unif_frust
ISING
25
2 2 2 2 2 2 2 2 2 2 2 2 2 2 2 2 2 2 2 2 2 2 2 2 2
0 40 1.0 1
2 0 1
2 0 5
2 1 2
2 1 6
2 2 3
2 2 7
2 3 4
2 3 8
2 4 9
2 5 6
2 5 10
2 6 7
2 6 11
2 7 8
2 7 12
2 8 9
2 8 13
2 9 14
2 10 11
2 10 15
2 11 12
2 11 16
2 12 13
2 12 17
2 13 14
2 13 18
2 14 19
2 15 16
2 15 20
2 16 17
2 16 21
2 17 18
2 17 22
2 18 19
2 18 23
2 19 24
2 20 21
2 21 22
2 22 23
2 23 24

4
 -0.08340797740455796 0.08340797740455796
 0.08340797740455796 -0.08340797740455796
4
 -0.06165832138639149 0.06165832138639149
 0.06165832138639149 -0.06165832138639149
4
 0.40749545593465153 -0.40749545593465153
 -0.40749545593465153 0.40749545593465153
4
 0.6166910352568873 -0.6166910352568873
 -0.6166910352568873 0.6166910352568873
4
 0.9338861782443693 -0.9338861782443693
 -0.9338861782443693 0.9338861782443693
4
 -0.5631231850418381 0.5631231850418381
 0.5631231850418381 -0.5631231850418381
4
 -0.8871924094152202 0.8871924094152202
 0.8871924094152202 -0.8871924094152202
4
 0.21238433169227444 -0.21238433169227444
 -0.21238433169227444 0.21238433169227444
4
 -0.5628594581580371 0.5628594581580371
 0.5628594581580371 -0.5628594581580371
4
 -0.4235635075971502 0.4235635075971502
 0.4235635075971502 -0.4235635075971502
4
 -0.46563025638203737 0.46563025638203737
 0.46563025638203737 -0.46563025638203737
4
 -0.08186629364100928 0.08186629364100928
 0.08186629364100928 -0.08186629364100928
4
 -0.3440166229945596 0.3440166229945596
 0.3440166229945596 -0.3440166229945596
4
 -0.2761894190081009 0.2761894190081009
 0.2761894190081009 -0.2761894190081009
4
 0.415099688866265 -0.415099688866265
 -0.415099688866265 0.415099688866265
4
 0.5798243513757833 -0.5798243513757833
 -0.5798243513757833 0.5798243513757833
4
 0.20264138516155494 -0.20264138516155494
 -0.20264138516155494 0.20264138516155494
4
 -0.8769575862002765 0.8769575862002765
 0.8769575862002765 -0.8769575862002765
4
 -0.5474928643292893 0.5474928643292893
 0.5474928643292893 -0.5474928643292893
4
 -0.20486350968466116 0.20486350968466116
 0.20486350968466116 -0.20486350968466116
4
 0.623591146924525 -0.623591146924525
 -0.623591146924525 0.623591146924525
4
 -0.769513073653185 0.769513073653185
 0.769513073653185 -0.769513073653185
4
 -0.19193379479755457 0.19193379479755457
 0.19193379479755457 -0.19193379479755457
4
 0.2967320597373335 -0.2967320597373335
 -0.2967320597373335 0.2967320597373335
4
 0.9758430095084731 -0.9758430095084731
 -0.9758430095084731 0.9758430095084731
4
 0.37637228118481025 -0.37637228118481025
 -0.37637228118481025 0.37637228118481025
4
 0.42751828140335113 -0.42751828140335113
 -0.42751828140335113 0.42751828140335113
4
 0.15241434310927704 -0.15241434310927704
 -0.15241434310927704 0.15241434310927704
4
 0.9150663168780517 -0.9150663168780517
 -0.9150663168780517 0.9150663168780517
4
 -0.2616809828731199 0.2616809828731199
 0.2616809828731199 -0.2616809828731199
4
 -0.528423693137118 0.528423693137118
 0.528423693137118 -0.528423693137118
4
 0.14414117042737384 -0.14414117042737384
 -0.14414117042737384 0.14414117042737384
4
 0.42329341490582784 -0.42329341490582784
 -0.42329341490582784 0.42329341490582784
4
 0.504424793332706 -0.504424793332706
 -0.504424793332706 0.504424793332706
4
 0.8123337916282318 -0.8123337916282318
 -0.8123337916282318 0.8123337916282318
4
 -0.8166431264529039 0.8166431264529039
 0.8166431264529039 -0.8166431264529039
4
 -0.5090587759102989 0.5090587759102989
 0.5090587759102989 -0.5090587759102989
4
 0.9574633095742056 -0.9574633095742056
 -0.9574633095742056 0.9574633095742056
4
 -0.5072048072395554 0.5072048072395554
 0.5072048072395554 -0.5072048072395554
4
 -0.5527794866613431 0.5527794866613431
 0.5527794866613431 -0.5527794866613431
